%%% static parameters %%%
timespan = 1;
Clients_N = [500];
Demand_W = [15];
Lt0 = [4];
Lt1 = [4];
SS_ = [0.85];
DS_D = [20];
K = [200];
MA = [500];
HC = [0.05];
%%% dynamic parameters %%%
lost_ratio_sales_ret_th = 4.0750212591605494e-05;
lost_ratio_sales_ret_w = 71;
lost_ratio_sales_dis_th = 0.00039044511026419047;
lost_ratio_sales_dis_w = 25;
lost_ratio_sales_fac_th = 0.0006382200433115134;
lost_ratio_sales_fac_w = 70;
stock_customer_MA_mean_relative_th = 0.11579813732985267;
stock_customer_MA_mean_relative_w = 39;
stock_distributor_MA_mean_relative_th = 0.555870574668205;
stock_distributor_MA_mean_relative_w = 22;
stock_retailer_MA_mean_relative_th = 0.3116470798748687;
stock_retailer_MA_mean_relative_w = 87;
stock_factory_MA_mean_relative_th = 0.6071519705259055;
stock_factory_MA_mean_relative_w = 54;
